c Modular CNF with 2 modules
c Generated CNF instance
p cnf 20 320
9 7 4 0
9 7 -4 0
9 -7 4 0
-9 7 4 0
3 10 5 0
3 10 -5 0
3 -10 5 0
-3 10 5 0
8 3 2 0
8 3 -2 0
8 -3 2 0
-8 3 2 0
7 9 1 0
7 9 -1 0
7 -9 1 0
-7 9 1 0
4 10 1 0
4 10 -1 0
4 -10 1 0
-4 10 1 0
7 1 3 0
7 1 -3 0
7 -1 3 0
-7 1 3 0
10 3 5 0
10 3 -5 0
10 -3 5 0
-10 3 5 0
8 5 2 0
8 5 -2 0
8 -5 2 0
-8 5 2 0
9 8 5 0
9 8 -5 0
9 -8 5 0
-9 8 5 0
2 10 7 0
2 10 -7 0
2 -10 7 0
-2 10 7 0
2 10 7 0
2 10 -7 0
2 -10 7 0
-2 10 7 0
6 3 7 0
6 3 -7 0
6 -3 7 0
-6 3 7 0
2 8 10 0
2 8 -10 0
2 -8 10 0
-2 8 10 0
9 10 3 0
9 10 -3 0
9 -10 3 0
-9 10 3 0
1 2 9 0
1 2 -9 0
1 -2 9 0
-1 2 9 0
7 2 8 0
7 2 -8 0
7 -2 8 0
-7 2 8 0
1 8 5 0
1 8 -5 0
1 -8 5 0
-1 8 5 0
1 10 4 0
1 10 -4 0
1 -10 4 0
-1 10 4 0
3 2 9 0
3 2 -9 0
3 -2 9 0
-3 2 9 0
2 4 1 0
2 4 -1 0
2 -4 1 0
-2 4 1 0
4 1 10 0
4 1 -10 0
4 -1 10 0
-4 1 10 0
8 6 7 0
8 6 -7 0
8 -6 7 0
-8 6 7 0
8 3 5 0
8 3 -5 0
8 -3 5 0
-8 3 5 0
4 7 1 0
4 7 -1 0
4 -7 1 0
-4 7 1 0
10 7 3 0
10 7 -3 0
10 -7 3 0
-10 7 3 0
1 2 5 0
1 2 -5 0
1 -2 5 0
-1 2 5 0
10 6 7 0
10 6 -7 0
10 -6 7 0
-10 6 7 0
1 9 7 0
1 9 -7 0
1 -9 7 0
-1 9 7 0
6 1 2 0
6 1 -2 0
6 -1 2 0
-6 1 2 0
6 9 7 0
6 9 -7 0
6 -9 7 0
-6 9 7 0
2 7 3 0
2 7 -3 0
2 -7 3 0
-2 7 3 0
10 2 5 0
10 2 -5 0
10 -2 5 0
-10 2 5 0
2 1 4 0
2 1 -4 0
2 -1 4 0
-2 1 4 0
10 7 9 0
10 7 -9 0
10 -7 9 0
-10 7 9 0
5 10 9 0
5 10 -9 0
5 -10 9 0
-5 10 9 0
8 4 9 0
8 4 -9 0
8 -4 9 0
-8 4 9 0
5 3 1 0
5 3 -1 0
5 -3 1 0
-5 3 1 0
7 5 2 0
7 5 -2 0
7 -5 2 0
-7 5 2 0
6 9 5 0
6 9 -5 0
6 -9 5 0
-6 9 5 0
7 8 1 0
7 8 -1 0
7 -8 1 0
-7 8 1 0
16 20 14 0
16 20 -14 0
16 -20 14 0
-16 20 14 0
18 12 16 0
18 12 -16 0
18 -12 16 0
-18 12 16 0
19 12 14 0
19 12 -14 0
19 -12 14 0
-19 12 14 0
13 12 20 0
13 12 -20 0
13 -12 20 0
-13 12 20 0
16 17 15 0
16 17 -15 0
16 -17 15 0
-16 17 15 0
15 13 11 0
15 13 -11 0
15 -13 11 0
-15 13 11 0
20 17 12 0
20 17 -12 0
20 -17 12 0
-20 17 12 0
15 14 12 0
15 14 -12 0
15 -14 12 0
-15 14 12 0
19 11 12 0
19 11 -12 0
19 -11 12 0
-19 11 12 0
13 14 16 0
13 14 -16 0
13 -14 16 0
-13 14 16 0
17 15 20 0
17 15 -20 0
17 -15 20 0
-17 15 20 0
14 17 18 0
14 17 -18 0
14 -17 18 0
-14 17 18 0
11 16 19 0
11 16 -19 0
11 -16 19 0
-11 16 19 0
14 19 12 0
14 19 -12 0
14 -19 12 0
-14 19 12 0
18 16 13 0
18 16 -13 0
18 -16 13 0
-18 16 13 0
19 14 17 0
19 14 -17 0
19 -14 17 0
-19 14 17 0
12 18 17 0
12 18 -17 0
12 -18 17 0
-12 18 17 0
13 14 18 0
13 14 -18 0
13 -14 18 0
-13 14 18 0
18 13 11 0
18 13 -11 0
18 -13 11 0
-18 13 11 0
19 16 15 0
19 16 -15 0
19 -16 15 0
-19 16 15 0
13 17 14 0
13 17 -14 0
13 -17 14 0
-13 17 14 0
11 20 13 0
11 20 -13 0
11 -20 13 0
-11 20 13 0
20 18 19 0
20 18 -19 0
20 -18 19 0
-20 18 19 0
16 18 11 0
16 18 -11 0
16 -18 11 0
-16 18 11 0
18 14 12 0
18 14 -12 0
18 -14 12 0
-18 14 12 0
17 16 15 0
17 16 -15 0
17 -16 15 0
-17 16 15 0
12 19 15 0
12 19 -15 0
12 -19 15 0
-12 19 15 0
11 19 17 0
11 19 -17 0
11 -19 17 0
-11 19 17 0
15 12 19 0
15 12 -19 0
15 -12 19 0
-15 12 19 0
15 20 11 0
15 20 -11 0
15 -20 11 0
-15 20 11 0
17 18 12 0
17 18 -12 0
17 -18 12 0
-17 18 12 0
14 19 20 0
14 19 -20 0
14 -19 20 0
-14 19 20 0
19 18 13 0
19 18 -13 0
19 -18 13 0
-19 18 13 0
14 19 15 0
14 19 -15 0
14 -19 15 0
-14 19 15 0
17 14 15 0
17 14 -15 0
17 -14 15 0
-17 14 15 0
12 17 11 0
12 17 -11 0
12 -17 11 0
-12 17 11 0
20 13 12 0
20 13 -12 0
20 -13 12 0
-20 13 12 0
12 16 15 0
12 16 -15 0
12 -16 15 0
-12 16 15 0
11 19 13 0
11 19 -13 0
11 -19 13 0
-11 19 13 0
13 19 20 0
13 19 -20 0
13 -19 20 0
-13 19 20 0
